
Welcome to IBM(R) ILOG(R) CPLEX(R) Interactive Optimizer 22.1.1.0
  with Simplex, Mixed Integer & Barrier Optimizers
5725-A06 5725-A29 5724-Y48 5724-Y49 5724-Y54 5724-Y55 5655-Y21
Copyright IBM Corp. 1988, 2022.  All Rights Reserved.

Type 'help' for a list of available commands.
Type 'help' followed by a command name for more
information on commands.

CPLEX> Selected objective sense:  MINIMIZE
Selected objective  name:  00000000
Selected RHS        name:  RHS1
Selected bound      name:  BOUND
Problem 'ee.mps' read.
Read time = 0.02 sec. (3.14 ticks)
CPLEX> New value for time limit in seconds: 7200
CPLEX> New value for parallel optimization mode: -1
CPLEX> New value for default parallel thread count: 40
CPLEX> New value for mixed integer optimality gap tolerance: 1e-13
CPLEX> Version identifier: 22.1.1.0 | 2022-11-28 | 9160aff4d
CPXPARAM_Threads                                 40
CPXPARAM_Parallel                                -1
CPXPARAM_TimeLimit                               7200
CPXPARAM_MIP_Tolerances_MIPGap                   1e-13
Found incumbent of value 0.000000 after 0.00 sec. (0.31 ticks)
Tried aggregator 2 times.
MIP Presolve eliminated 274 rows and 3331 columns.
MIP Presolve modified 5877 coefficients.
Aggregator did 873 substitutions.
Reduced MIP has 3370 rows, 6965 columns, and 25886 nonzeros.
Reduced MIP has 6965 binaries, 0 generals, 0 SOSs, and 0 indicators.
Presolve time = 0.07 sec. (70.01 ticks)
Probing fixed 24 vars, tightened 0 bounds.
Probing time = 0.06 sec. (28.73 ticks)
Tried aggregator 2 times.
Detecting symmetries...
MIP Presolve eliminated 26 rows and 44 columns.
Aggregator did 4 substitutions.
Reduced MIP has 3340 rows, 6911 columns, and 25712 nonzeros.
Reduced MIP has 6911 binaries, 0 generals, 0 SOSs, and 0 indicators.
Presolve time = 0.04 sec. (46.57 ticks)
Probing time = 0.02 sec. (5.05 ticks)
Clique table members: 16581.
MIP emphasis: balance optimality and feasibility.
MIP search method: dynamic search.
Parallel mode: opportunistic, using up to 40 threads.
Root relaxation solution time = 0.07 sec. (62.22 ticks)

        Nodes                                         Cuts/
   Node  Left     Objective  IInf  Best Integer    Best Bound    ItCnt     Gap

*     0+    0                            0.0000  -1.31000e+13              --- 
*     0+    0                      -2.20000e+12  -1.31000e+13           495.46%
*     0+    0                      -3.30000e+12  -1.31000e+13           296.97%
*     0+    0                      -4.40000e+12  -1.31000e+13           197.73%
*     0+    0                      -5.50000e+12  -1.31000e+13           138.18%
*     0+    0                      -6.60000e+12  -1.31000e+13            98.48%
      0     0  -1.30900e+13    32  -6.60000e+12  -1.30900e+13     1461   98.33%
*     0+    0                      -1.30900e+13  -1.30900e+13             0.00%
*     0+    0                      -1.30900e+13  -1.30900e+13             0.00%
      0     0  -1.30900e+13   127  -1.30900e+13      Cuts: 43     1885    0.00%
      0     0  -1.30900e+13   159  -1.30900e+13      Cuts: 65     2107    0.00%

Repeating presolve.
Tried aggregator 3 times.
MIP Presolve eliminated 1385 rows and 3041 columns.
MIP Presolve modified 72 coefficients.
Aggregator did 274 substitutions.
Reduced MIP has 1681 rows, 3583 columns, and 12581 nonzeros.
Reduced MIP has 3583 binaries, 0 generals, 0 SOSs, and 0 indicators.
Presolve time = 0.06 sec. (62.09 ticks)
Probing fixed 64 vars, tightened 0 bounds.
Probing time = 0.05 sec. (13.91 ticks)
Tried aggregator 2 times.
MIP Presolve eliminated 45 rows and 75 columns.
Aggregator did 16 substitutions.
Reduced MIP has 1620 rows, 3492 columns, and 12222 nonzeros.
Reduced MIP has 3492 binaries, 0 generals, 0 SOSs, and 0 indicators.
Presolve time = 0.02 sec. (19.72 ticks)
Probing time = 0.04 sec. (12.85 ticks)
Tried aggregator 1 time.
Detecting symmetries...
MIP Presolve eliminated 19 rows and 11 columns.
Reduced MIP has 1601 rows, 3480 columns, and 12163 nonzeros.
Reduced MIP has 3480 binaries, 0 generals, 0 SOSs, and 0 indicators.
Presolve time = 0.02 sec. (13.83 ticks)
Represolve time = 0.21 sec. (142.40 ticks)
Probing time = 0.03 sec. (8.34 ticks)
Clique table members: 8267.
MIP emphasis: balance optimality and feasibility.
MIP search method: dynamic search.
Parallel mode: opportunistic, using up to 40 threads.
Root relaxation solution time = 0.05 sec. (31.38 ticks)

        Nodes                                         Cuts/
   Node  Left     Objective  IInf  Best Integer    Best Bound    ItCnt     Gap

*     0+    0                      -1.30900e+13  -1.30900e+13             0.00%
      0     0  -1.30900e+13   118  -1.30900e+13  -1.30900e+13     3108    0.00%
      0     0  -1.30900e+13    98  -1.30900e+13      Cuts: 70     3338    0.00%
      0     0  -1.30900e+13   117  -1.30900e+13      Cuts: 61     3482    0.00%
      0     0  -1.30900e+13   127  -1.30900e+13      Cuts: 50     3559    0.00%
*     0+    0                      -1.30900e+13  -1.30900e+13             0.00%
      0     2  -1.30900e+13   108  -1.30900e+13  -1.30900e+13     3559    0.00%
Elapsed time = 1.65 sec. (999.20 ticks, tree = 0.02 MB, solutions = 9)
   1710   156  -1.30900e+13    57  -1.30900e+13  -1.30900e+13    37095    0.00%
   3251   394        cutoff        -1.30900e+13  -1.30900e+13    90360    0.00%

Clique cuts applied:  24
Cover cuts applied:  367
Flow cuts applied:  12
Mixed integer rounding cuts applied:  9
Zero-half cuts applied:  19
Lift and project cuts applied:  23
Gomory fractional cuts applied:  14

Root node processing (before b&c):
  Real time             =    1.31 sec. (999.05 ticks)
Parallel b&c, 40 threads:
  Real time             =    1.38 sec. (661.47 ticks)
  Sync time (average)   =    0.35 sec.
  Wait time (average)   =    0.00 sec.
                          ------------
Total (root+branch&cut) =    2.70 sec. (1660.51 ticks)

Solution pool: 12 solutions saved.

MIP - Integer optimal solution:  Objective = -1.3089999990e+13
Solution time =    2.78 sec.  Iterations = 135777  Nodes = 3622
Deterministic time = 1660.54 ticks  (597.73 ticks/sec)

CPLEX> Solution 'p13' written to file 'ee.sol'.
CPLEX> 